StudentsNr = 5;
InstructorsNr = 10;
DaysNr = 1;
SlotsPerDay = 10;
RoomNr = 1;
ProgrammNr = 2;
DegreeNr = 1;
RolesNr = 1;
CoursesNr = 3;
InstructorsId = {1, 2, 3, 4, 5, 6, 7, 8, 9, 10};
InstructorsProgramm = [{2}, {2}, {1, 2}, {1}, {1}, {1}, {2}, {1}, {2}, {1, 2}];
InstructorsRoles = [{}, {1}, {}, {}, {}, {1}, {1}, {1}, {1}, {}];
InstructorsAvailability = [|0, 0, 0, 0, 0, 0, 1, 1, 1, 1, |0, 0, 1, 1, 1, 0, 0, 0, 0, 0, |0, 1, 1, 1, 1, 1, 0, 0, 0, 0, |0, 0, 1, 1, 0, 0, 0, 0, 0, 0, |1, 1, 1, 1, 1, 1, 0, 1, 1, 1, |1, 1, 1, 1, 0, 1, 1, 1, 0, 0, |0, 0, 0, 1, 0, 0, 0, 0, 0, 0, |1, 1, 1, 1, 1, 1, 1, 0, 0, 0, |0, 0, 1, 1, 1, 1, 1, 1, 1, 1, |1, 0, 0, 0, 0, 0, 0, 0, 0, 1|];
StudentsId = {1, 2, 3, 4, 5};
StudentsProgramm = [2, 1, 1, 1, 1];
StudentsDegree = [1, 1, 1, 1, 1];
StudentsSupervisorId = [2, 6, 4, 6, 4];
StudentsCourseIds = [{}, {}, {}, {}, {}];
StudentsAvailability = [|1, 1, 1, 1, 1, 1, 1, 1, 1, 1, |0, 0, 1, 1, 1, 1, 1, 1, 0, 0, |1, 1, 1, 1, 1, 1, 1, 1, 1, 1, |0, 0, 1, 1, 1, 1, 1, 1, 1, 1, |1, 1, 1, 0, 0, 1, 0, 0, 0, 1|];
CoursesId = {1, 2, 3};
CoursesInstructorIds = [{1, 2, 4, 5, 7, 9, 10}, {2, 5, 8, 9, 10}, {2, 3, 10}];
